p cnf 15 26
15 14 -9 0
-15 14 -7 0
-15 -14 5 0
15 -12 7 0
15 10 -8 0
14 13 2 0
14 7 -5 0
14 4 3 0
13 -8 -7 0
-13 -8 -5 0
12 -10 -7 0
12 10 2 0
12 9 -1 0
12 -5 4 0
-12 -5 -1 0
-11 10 6 0
11 10 3 0
11 8 -6 0
-11 -6 -2 0
-11 -3 2 0
10 -9 -5 0
-10 9 2 0
-10 -7 -4 0
10 6 4 0
10 -4 2 0
7 5 -4 0
